NAME : rnd40_50.tsp.tsp.opt.tour
TYPE : TOUR
DIMENSION : 50
TOUR_SECTION
1
15
34
41
18
30
47
23
13
49
31
37
39
36
19
20
2
17
4
35
44
21
48
29
40
12
3
11
6
50
32
45
8
7
33
26
9
38
27
43
46
24
22
16
28
5
25
42
14
10
-1